language Essence 1.3

letting class be function(1 --> 1, 2 --> 1, 3 --> 1, 4 --> 1, 5 --> 2, 6 --> 2, 7 --> 2)
letting deck_length be 79
letting deck_width be 77
letting length be function(1 --> 3, 2 --> 1, 3 --> 2, 4 --> 62, 5 --> 2, 6 --> 1, 7 --> 1)
letting n_classes be 2
letting n_containers be 7
letting separation be function()
letting width be function(1 --> 24, 2 --> 27, 3 --> 13, 4 --> 75, 5 --> 10, 6 --> 6, 7 --> 3)
